
Gurobi 10.0.1 (linux64) logging started Sun Nov 26 15:37:38 2023

Set parameter LogFile to value "ArtificialInstance/ExperimentV2/S4T5K2/AdSp/gurobi1.txt"
Gurobi Optimizer version 10.0.1 build v10.0.1rc0 (linux64)

CPU model: AMD EPYC 7H12 64-Core Processor, instruction set [SSE2|AVX|AVX2]
Thread count: 128 physical cores, 128 logical processors, using up to 32 threads

Academic license 656792 - for non-commercial use only - registered to b.___@student.vu.nl
Optimize a model with 14040 rows, 13215 columns and 50745 nonzeros
Model fingerprint: 0xd06327fa
Variable types: 0 continuous, 13215 integer (13215 binary)
Coefficient statistics:
  Matrix range     [1e+00, 1e+00]
  Objective range  [9e-01, 2e+01]
  Bounds range     [1e+00, 1e+00]
  RHS range        [1e+00, 1e+00]
Presolve removed 3165 rows and 3244 columns
Presolve time: 0.27s
Presolved: 10875 rows, 9971 columns, 38963 nonzeros
Variable types: 0 continuous, 9971 integer (9971 binary)

Root relaxation: objective 6.616698e+01, 6435 iterations, 0.29 seconds (0.18 work units)

    Nodes    |    Current Node    |     Objective Bounds      |     Work
 Expl Unexpl |  Obj  Depth IntInf | Incumbent    BestBd   Gap | It/Node Time

*    0     0               0      66.1669847   66.16698  0.00%     -    0s

Explored 1 nodes (6435 simplex iterations) in 0.62 seconds (0.41 work units)
Thread count was 32 (of 128 available processors)

Solution count 1: 66.167 

Optimal solution found (tolerance 1.00e-04)
Best objective 6.616698473692e+01, best bound 6.616698473692e+01, gap 0.0000%
